(set-logic QF_BV)
(declare-fun _substvar_172_ () (_ BitVec 1))
(declare-fun _substvar_181_ () (_ BitVec 1))
(declare-fun _substvar_148_ () (_ BitVec 1))
(declare-fun _substvar_285_ () Bool)
(declare-fun _substvar_177_ () (_ BitVec 64))
(declare-fun _substvar_142_ () (_ BitVec 1))
(declare-fun _substvar_194_ () (_ BitVec 1))
(declare-fun _substvar_141_ () (_ BitVec 1))
(declare-fun _substvar_170_ () (_ BitVec 1))
(declare-fun _substvar_167_ () (_ BitVec 1))
(declare-fun _substvar_191_ () (_ BitVec 1))
(declare-fun _substvar_190_ () (_ BitVec 1))
(declare-fun _substvar_180_ () (_ BitVec 64))
(declare-fun _substvar_188_ () (_ BitVec 1))
(declare-fun _substvar_168_ () (_ BitVec 1))
(declare-fun _substvar_184_ () (_ BitVec 1))
(declare-fun _substvar_173_ () (_ BitVec 1))
(declare-fun _substvar_162_ () (_ BitVec 64))
(declare-fun _substvar_171_ () (_ BitVec 1))
(declare-fun _substvar_147_ () (_ BitVec 1))
(declare-fun _substvar_169_ () (_ BitVec 1))
(assert (= _substvar_162_ (bvsrem _substvar_177_ (_ bv0 64))))
(assert (= _substvar_180_ (bvsub _substvar_177_ _substvar_162_)))
(assert (= (= _substvar_168_ (_ bv1 1)) (bvslt _substvar_180_ (_ bv0 64))))
(assert (= _substvar_169_ _substvar_168_))
(assert (= _substvar_171_ (bvand _substvar_194_ _substvar_169_)))
(assert (= _substvar_190_ (bvand _substvar_188_ _substvar_171_)))
(assert (= _substvar_170_ (bvand _substvar_190_ _substvar_167_)))
(assert (= _substvar_173_ (bvand _substvar_170_ _substvar_172_)))
(assert (= _substvar_191_ (bvand _substvar_173_ _substvar_181_)))
(assert (= _substvar_148_ (bvand _substvar_191_ _substvar_147_)))
(assert (= _substvar_184_ (ite _substvar_285_ (_ bv0 1) _substvar_148_)))
(assert (= _substvar_142_ (bvand _substvar_141_ _substvar_184_)))
(assert (= false (=> (= _substvar_142_ (_ bv1 1)) false)))
(check-sat)
(exit)
